NAME : portcgen-20-23
COMMENT : portcgen N=20, seed=23
TYPE : TSP
DIMENSION : 20
EDGE_WEIGHT_TYPE : EUC_2D
NODE_COORD_SECTION
1 139361 -32553
2 57832 50926
3 -80275 87377
4 233719 12675
5 369234 51738
6 267360 298945
7 468228 -254864
8 -118065 -33397
9 385348 -101874
10 79885 -163117
11 84310 12860
12 87149 -3501
13 -323054 -270101
14 -154535 -89264
15 -22973 -101966
16 7409 -254315
17 -298044 -140427
18 -183789 -53527
19 -115879 124707
20 -197941 46455
